 $contrl ISPHER=1 PP=READ $END

 $ECP
C-ECP NONE
C-ECP NONE
C-ECP NONE
C-ECP NONE
I-ECP GEN    28    3
4     ----- f-ul potential -----
    -21.84204000      2      19.45860900
    -28.46819100      2      19.34926000
     -0.24371300      2       4.82376700
     -0.32080400      2       4.88431500
7     ----- s-f potential -----
     49.99429300      2      40.01583500
    281.02531700      2      17.42974700
     61.57332600      2       9.00548400
     21.84204000      2      19.45860900
     28.46819100      2      19.34926000
      0.24371300      2       4.82376700
      0.32080400      2       4.88431500
8     ----- p-f potential -----
     67.44284100      2      15.35546600
    134.88113700      2      14.97183300
     14.67505100      2       8.96016400
     29.37566600      2       8.25909600
     21.84204000      2      19.45860900
     28.46819100      2      19.34926000
      0.24371300      2       4.82376700
      0.32080400      2       4.88431500
10    ----- d-f potential -----
     35.43952900      2      15.06890800
     53.17605700      2      14.55532200
      9.06719500      2       6.71864700
     13.20693700      2       6.45639300
      0.08933500      2       1.19177900
      0.05238000      2       1.29115700
     21.84204000      2      19.45860900
     28.46819100      2      19.34926000
      0.24371300      2       4.82376700
      0.32080400      2       4.88431500
H-ECP NONE
H-ECP NONE
H-ECP NONE
H-ECP NONE
H-ECP NONE
H-ECP NONE
H-ECP NONE
H-ECP NONE
H-ECP NONE
 $END