! SELECT RESTRICTED HARTREE-FOCK AS DEFAULT 
 $contrl scftyp=rhf $end

! THEORY: HF OR DFT
! $contrl mplevl=0 $end
 $CONTRL DFTTYP=B3LYP $END

 $system timlim=10000 mwords=20 $end
 $SCF DIRSCF=.TRUE. $end

! BASIS SET
! https://github.com/shoubhikraj/molecular-modelling/tree/main/basis-sets
 $contrl ISPHER=1 $END
 $BASIS GBASIS=d2tzvpd EXTFIL=.t. $END

! One of the following
 $guess guess=HUCKEL $end

 $statpt projct=.FALSE. $end

! available memory
 $SYSTEM MWORDS=500 $END

! Run COSMO on perfect conductor
 $COSGMS PRFCND=.TRUE. $end

! Specifying RSOLV
 $COSGMS COSRAD = 1.3 NSPA=162 $end

! Custom radii
 $COSGMS URH=1.35 URC=2.02 URN=1.89 URO=1.83 URF=1.71 URAL=2.09 $end
 $COSGMS URP=2.05 URS=2.06 URCL=2.01 URAR=2.13 URZN=1.64 URBR=2.12 $end
 $COSGMS URI=2.28 $end

